10J3M/DAT/10J3MUNA-14.dat
10 3
34.0837 1161.6986
46.0164 2117.5091
12.6984 161.2494
15.7861 249.201
8.332 69.4222
15.1669 230.0349
13.808 190.6609
15.0138 225.4142
12.5496 157.4925
34.2762 1174.8579
5737.5407