10J3M/SOL/10J3MUNA-14.sol
solution status: optimal solution found
objective value:                              69.2437
x#1#2                                               1 	(obj:0)
x#2#3                                               1 	(obj:0)
x#3#1                                               1 	(obj:0)
x#4#3                                               1 	(obj:0)
x#5#1                                               1 	(obj:0)
x#6#1                               0.451107345601276 	(obj:0)
x#6#2                               0.548892654398725 	(obj:0)
x#7#1                                               1 	(obj:0)
x#8#1                                               1 	(obj:0)
x#9#1                                               1 	(obj:0)
x#10#2                              0.782904756069809 	(obj:0)
x#10#3                              0.217095243930191 	(obj:0)
z                                             69.2437 	(obj:1)
